000 000 000 000 000 000 000 000 -99 -99 -99 -99 -99 000 000 -99 -99 -99 000 000 000 000 -99 000 000 000 -99 -99 -99 -99 -99
-99 000 000 000 000 000 000 000 000 -99 -99 -99 -99 000 000 000 -99 -99 -99 000 000 000 000 -99 000 000 -99 -99 -99 -99 -99
-99 000 000 000 000 000 000 000 000 -99 -99 -99 -99 -99 000 000 -99 -99 -99 -99 000 000 000 000 000 000 000 000 000 000 -99
-99 000 000 000 000 000 000 000 000 000 -99 -99 000 -99 000 000 -99 -99 -99 -99 000 000 000 000 000 000 000 000 000 000 -99
000 -99 000 000 000 000 000 000 000 000 -99 -99 000 000 000 000 -99 -99 -99 000 000 000 000 000 000 000 000 -99 -99 -99 -99
000 000 000 000 000 000 000 000 000 000 -99 -99 000 000 000 000 -99 -99 -99 -99 000 000 000 000 000 000 -99 -99 -99 -99 -99
000 000 000 000 000 000 000 000 000 000 000 -99 000 000 000 000 000 000 -99 -99 000 000 000 000 000 000 -99 -99 -99 -99 -99
000 000 000 000 -99 000 000 000 000 000 -99 -99 -99 -99 -99 000 000 000 000 -99 000 000 000 000 000 000 -99 -99 -99 -99 -99
000 000 000 000 -99 -99 -99 000 000 000 -99 -99 -99 -99 -99 -99 000 000 000 -99 000 000 000 -99 000 -99 -99 -99 -99 -99 -99
000 000 000 000 000 000 -99 -99 000 000 000 000 -99 -99 -99 -99 000 000 000 -99 000 000 000 -99 000 000 -99 -99 -99 000 -99
000 000 000 000 000 000 000 000 000 000 000 000 000 -99 -99 -99 000 000 000 -99 -99 000 000 -99 000 000 -99 -99 -99 000 000
000 000 000 000 000 000 000 000 000 000 000 000 000 -99 -99 -99 000 000 000 000 -99 000 -99 -99 000 -99 -99 -99 -99 000 000
000 000 000 000 000 000 000 000 000 000 000 000 000 000 -99 -99 000 000 000 000 -99 000 -99 000 000 000 000 -99 -99 000 000
000 000 000 000 000 000 000 000 000 000 000 000 000 -99 -99 -99 000 000 000 000 -99 000 -99 000 000 000 000 000 000 000 000
000 000 -99 000 000 000 000 000 000 000 000 000 000 000 -99 000 000 000 000 -99 -99 000 -99 000 000 000 000 000 000 000 000
000 000 000 000 000 000 000 000 000 000 000 000 000 000 000 000 000 000 000 -99 -99 000 -99 000 000 000 000 000 000 000 000
000 000 000 000 000 000 000 000 000 000 000 000 000 000 000 000 000 000 000 000 000 000 000 000 000 000 000 000 001 000 000
000 000 000 -99 -99 000 000 000 000 000 000 000 000 000 000 000 000 000 000 000 000 000 000 -99 000 000 000 000 001 001 001
000 000 000 000 -99 000 000 000 000 000 000 000 000 -99 000 000 000 000 000 000 000 000 000 -99 000 000 000 000 001 001 001
000 000 000 000 000 000 000 000 000 000 000 000 000 -99 000 000 000 000 000 000 000 000 000 -99 -99 000 001 -99 -99 001 001
000 000 000 000 000 000 000 000 000 000 000 000 -99 -99 000 000 000 000 000 000 000 001 001 001 002 002 001 -99 -99 -99 -99
000 000 000 000 000 000 000 000 000 000 000 000 -99 000 000 000 000 000 000 000 000 001 001 001 002 002 001 -99 -99 -99 -99
000 000 000 000 000 000 000 000 000 000 000 000 -99 000 000 000 000 000 000 000 001 001 001 001 002 002 002 -99 -99 -99 -99
000 000 000 000 000 000 000 000 000 000 000 -99 000 000 000 000 000 000 000 001 002 002 002 002 003 002 -99 -99 -99 -99 -99
000 000 000 000 000 000 000 000 000 000 -99 -99 000 000 000 000 000 000 001 001 002 001 002 002 004 003 -99 -99 006 005 002
000 000 000 000 000 000 000 000 000 000 -99 -99 -99 000 000 000 000 000 000 001 002 001 002 003 -99 -99 -99 -99 -99 005 003
000 000 000 000 000 000 000 000 000 000 -99 -99 -99 000 000 000 000 000 000 001 002 002 002 -99 -99 -99 -99 -99 -99 004 003
000 000 000 000 000 000 000 000 000 -99 -99 -99 -99 000 000 000 000 000 001 001 001 002 001 001 001 -99 -99 -99 -99 003 003
000 000 000 000 000 000 000 000 000 000 -99 -99 -99 000 000 000 000 000 000 001 001 001 -99 001 001 -99 -99 -99 -99 002 003
000 000 000 000 000 000 000 000 000 000 000 -99 -99 000 000 000 000 000 000 000 000 001 -99 001 001 002 001 -99 -99 -99 003
000 000 000 000 000 000 000 000 000 000 000 -99 -99 000 000 -99 000 000 000 000 000 000 001 001 001 002 001 -99 002 -99 001
000 000 000 000 000 000 000 000 000 000 -99 -99 -99 000 000 -99 000 000 000 000 001 001 001 001 001 001 001 001 001 001 000
000 000 000 000 000 000 000 000 000 000 -99 -99 -99 -99 000 -99 000 000 000 000 001 001 000 000 000 001 001 000 000 001 000
000 000 000 000 000 000 000 000 000 -99 -99 -99 -99 000 000 000 000 000 000 000 000 000 000 000 000 000 001 000 001 001 000
000 000 000 000 000 000 000 000 000 000 -99 000 000 000 000 000 000 000 000 000 000 000 000 000 000 000 000 000 001 001 000
000 000 -99 000 000 000 000 000 000 000 -99 000 000 000 000 000 000 000 000 000 000 -99 -99 000 000 000 000 001 001 001 000
000 000 -99 000 000 000 000 000 000 000 000 -99 000 000 000 000 000 000 000 000 000 -99 000 000 000 000 000 000 001 001 000
000 -99 -99 -99 000 -99 -99 000 000 000 -99 -99 000 000 000 000 000 000 000 000 000 -99 000 000 -99 000 000 000 000 000 000
-99 -99 -99 -99 000 -99 000 -99 -99 000 -99 -99 000 000 000 000 000 000 000 000 000 -99 000 000 000 -99 000 000 000 000 000
000 000 000 000 000 -99 -99 -99 -99 -99 -99 000 000 000 000 000 000 000 000 -99 -99 -99 000 000 000 000 000 000 000 000 -99
000 000 -99 000 000 000 -99 -99 -99 -99 000 000 000 000 000 -99 000 000 000 -99 000 -99 000 000 -99 000 000 -99 -99 -99 000
000 000 -99 000 -99 000 000 -99 -99 -99 000 000 000 000 000 000 -99 000 000 000 000 -99 000 000 000 -99 -99 -99 -99 000 000
000 000 -99 -99 -99 000 000 -99 -99 000 000 000 000 000 000 000 000 000 000 000 000 -99 -99 000 000 -99 -99 -99 -99 -99 -99
000 000 -99 -99 -99 000 000 000 -99 000 -99 000 000 000 000 000 000 000 000 000 000 -99 -99 -99 000 000 -99 -99 -99 -99 -99
000 000 -99 -99 000 -99 -99 000 -99 000 -99 000 000 000 000 000 000 000 000 000 000 -99 000 000 000 -99 000 000 -99 -99 -99
000 -99 -99 -99 000 -99 -99 -99 000 -99 -99 000 000 000 000 000 000 000 000 000 000 000 000 000 000 -99 000 000 -99 -99 000
-99 -99 -99 -99 -99 -99 -99 -99 -99 -99 -99 000 000 000 000 000 -99 -99 000 000 000 000 001 000 000 -99 -99 -99 -99 -99 -99
-99 -99 -99 -99 -99 -99 -99 -99 -99 -99 -99 000 000 000 000 -99 -99 000 -99 -99 000 000 002 000 000 000 -99 -99 -99 -99 -99
-99 -99 -99 -99 -99 -99 -99 -99 -99 -99 -99 000 000 000 000 000 -99 000 -99 000 000 000 000 000 000 000 -99 -99 -99 -99 -99
-99 -99 -99 -99 -99 -99 -99 -99 -99 -99 -99 000 -99 000 -99 -99 -99 000 000 000 000 000 001 001 000 000 -99 -99 -99 -99 -99
-99 -99 -99 -99 -99 -99 -99 -99 -99 -99 -99 -99 000 000 -99 -99 000 000 000 000 000 000 001 001 000 000 -99 -99 -99 -99 -99
-99 -99 -99 -99 -99 -99 -99 -99 -99 -99 -99 -99 000 -99 -99 000 001 000 000 000 000 000 000 000 000 -99 -99 -99 -99 -99 -99
-99 -99 -99 -99 -99 -99 -99 -99 -99 -99 -99 -99 -99 -99 -99 000 000 000 000 000 002 000 000 000 000 -99 -99 -99 -99 -99 -99
-99 -99 -99 -99 -99 -99 -99 -99 -99 -99 -99 -99 -99 -99 -99 000 000 000 000 004 002 000 000 -99 -99 -99 -99 -99 -99 -99 -99
-99 -99 -99 -99 -99 -99 -99 -99 -99 -99 -99 -99 -99 -99 -99 000 000 000 001 002 002 000 000 -99 -99 -99 -99 -99 -99 -99 -99
